NAME: instance_11
TYPE: TSP
COMMENT: 11-city problem
DIMENSION: 11
EDGE_WEIGHT_TYPE: EUC_2D
NODE_COORD_SECTION
0 73 47
1 11 13
2 86 87
3 93 21
4 41 87
5 30 6
6 1 69
7 87 19
8 41 74
9 77 47
10 12 4
EOF
